
Gurobi 12.0.2 (win64) logging started Sun Jun  8 11:31:57 2025

Set parameter LogFile to value "C:\Ioana\_uni\honours\slp\algorithm\Main_files\results\others\prox_tubules_new_model\Task_001_Sample001_irr_gurobi.log"
Gurobi Optimizer version 12.0.2 build v12.0.2rc0 (win64 - Windows 11.0 (26100.2))

CPU model: Intel(R) Core(TM) Ultra 5 125H, instruction set [SSE2|AVX|AVX2]
Thread count: 14 physical cores, 18 logical processors, using up to 18 threads

Non-default parameters:
TimeLimit  2200

Optimize a model with 47226 rows, 34496 columns and 146683 nonzeros
Model fingerprint: 0x09e115f6
Variable types: 17251 continuous, 17245 integer (17245 binary)
Coefficient statistics:
  Matrix range     [1e-04, 8e+04]
  Objective range  [1e-04, 1e+01]
  Bounds range     [1e+00, 1e+03]
  RHS range        [1e+00, 1e+00]
Presolve removed 30826 rows and 21543 columns
Presolve time: 0.41s
Presolved: 16400 rows, 12953 columns, 54575 nonzeros
Variable types: 6410 continuous, 6543 integer (6543 binary)

Root relaxation: objective 8.975907e-04, 4923 iterations, 0.43 seconds (0.91 work units)

    Nodes    |    Current Node    |     Objective Bounds      |     Work
 Expl Unexpl |  Obj  Depth IntInf | Incumbent    BestBd   Gap | It/Node Time

     0     0    0.00090    0   11          -    0.00090      -     -    0s
H    0     0                       0.3261621    0.00090   100%     -    1s
H    0     0                       0.3102770    0.00090   100%     -    1s
     0     0    0.00430    0   19    0.31028    0.00430  98.6%     -    1s
     0     0    0.15781    0    4    0.31028    0.15781  49.1%     -    1s
     0     0    0.28571    0   17    0.31028    0.28571  7.92%     -    1s
     0     0    0.28571    0   10    0.31028    0.28571  7.92%     -    1s
     0     0    0.31028    0   11    0.31028    0.31028  0.00%     -    1s

Cutting planes:
  Gomory: 4
  Cover: 4
  MIR: 4
  Flow cover: 6
  Network: 1

Explored 1 nodes (5337 simplex iterations) in 1.28 seconds (1.56 work units)
Thread count was 18 (of 18 available processors)

Solution count 2: 0.310277 0.326162 

Optimal solution found (tolerance 1.00e-04)
Best objective 3.102769944973e-01, best bound 3.102769944839e-01, gap 0.0000%
